c CNF formula generated by generate_input.py
c Number of variables: 25
c Number of clauses: 25
c Clause length: random between 1 and 4
p cnf 25 25
9 -5 -11 -23 0
-18 -12 16 0
-14 3 0
20 3 4 0
-7 -23 0
-9 8 6 0
-10 -8 0
-13 -4 15 -16 0
18 0
-8 2 -10 0
-18 0
21 -20 0
10 -4 -14 0
-14 0
-14 -1 -21 0
-6 -5 0
19 0
-6 4 11 -22 0
23 0
6 17 13 0
-1 -14 8 0
19 0
-2 -19 18 0
11 -2 13 8 0
1 0
